solution status: gap limit reached
objective value:                          28502.69127
y#14                                                1 	(obj:5700)
y#17                                                1 	(obj:5700)
y#21                                                1 	(obj:5700)
y#22                                                1 	(obj:5700)
y#35                                                1 	(obj:5700)
x#1#22                                              1 	(obj:0.02414)
x#2#14                                              1 	(obj:0.02941)
x#3#22                                              1 	(obj:0.02193)
x#4#17                                              1 	(obj:0.03247)
x#5#35                                              1 	(obj:0.0323)
x#6#22                                              1 	(obj:0.05831)
x#7#35                                              1 	(obj:0.05678)
x#8#22                                              1 	(obj:0.0238)
x#9#17                                              1 	(obj:0.14518)
x#10#21                                             1 	(obj:0.05151)
x#11#14                                             1 	(obj:0.04454)
x#12#21                                             1 	(obj:0.01921)
x#13#17                                             1 	(obj:0.02295)
x#14#22                                             1 	(obj:0.05984)
x#15#22                                             1 	(obj:0.0187)
x#16#17                                             1 	(obj:0.02788)
x#17#35                                             1 	(obj:0.05695)
x#18#35                                             1 	(obj:0.04284)
x#19#21                                             1 	(obj:0.01445)
x#20#14                                             1 	(obj:0.05066)
x#21#17                                             1 	(obj:0.0476)
x#22#14                                             1 	(obj:0.05627)
x#23#14                                             1 	(obj:0.17595)
x#24#14                                             1 	(obj:0.06664)
x#25#14                                             1 	(obj:0.0408)
x#26#21                                             1 	(obj:0.04267)
x#27#14                                             1 	(obj:0.04454)
x#28#22                                             1 	(obj:0.01836)
x#29#21                                             1 	(obj:0.01734)
x#30#21                                             1 	(obj:0.04114)
x#31#22                                             1 	(obj:0.01819)
x#32#17                                             1 	(obj:0.03689)
x#33#22                                             1 	(obj:0.0289)
x#34#35                                             1 	(obj:0.02992)
x#35#14                                             1 	(obj:0.17442)
x#36#17                                             1 	(obj:0.06137)
x#37#17                                             1 	(obj:0.03723)
x#38#17                                             1 	(obj:0.08398)
x#39#21                                             1 	(obj:0.03808)
x#40#35                                             1 	(obj:0.02567)
x#41#35                                             1 	(obj:0.05117)
x#42#22                                             1 	(obj:0.07786)
x#43#21                                             1 	(obj:0.04233)
x#44#35                                             1 	(obj:0.06477)
x#45#35                                             1 	(obj:0.02669)
x#46#14                                             1 	(obj:0.03876)
x#47#35                                             1 	(obj:0.01734)
x#48#17                                             1 	(obj:0.03706)
x#49#21                                             1 	(obj:0.03043)
x#50#22                                             1 	(obj:0.04624)
x#51#14                                             1 	(obj:0.03825)
x#52#21                                             1 	(obj:0.03995)
x#53#17                                             1 	(obj:0.04556)
x#54#35                                             1 	(obj:0.06256)
x#55#21                                             1 	(obj:0.12053)
x#56#17                                             1 	(obj:0.03196)
